NAME: random-10-6151
TYPE: TSP
COMMENT: size=10 seed=6151
DIMENSION: 22
EDGE_WEIGHT_TYPE: EUC_2D
NODE_COORD_SECTION
+0 857 176
-0 857 176
+1 211 210
-1 161 353
+2 207 456
-2 814 397
+3 475 178
-3 821 27
+4 561 670
-4 214 495
+5 904 591
-5 625 926
+6 572 956
-6 394 744
+7 190 74
-7 94 590
+8 54 40
-8 341 937
+9 352 655
-9 964 162
+10 224 651
-10 428 185
PRECEDENCE_SECTION
+0 -0
+1 -1
+2 -2
+3 -3
+4 -4
+5 -5
+6 -6
+7 -7
+8 -8
+9 -9
+10 -10
EOF
